p cnf 1307
-25 -403
-26 -406
-27 -409
-28 -412
-29 -415
-30 -418
-31 -421
-32 -424
-33 -427
-34 -430
-35 -433
-36 -436
-37 -439
-38 -442
-39 -445
-40 -448
-41 -451
-42 -454
-43 -457
-44 -460
-45 -463
-46 -466
-47 -469
-48 -472
-49 473
-50 474
-51 475
-52 476
-53 -26
-53 -27
26 27 53
-54 -28
-54 -29
28 29 54
-55 -30
-55 -31
30 31 55
-56 -32
-56 -33
32 33 56
-57 -34
-57 -35
34 35 57
-58 -36
-58 -37
36 37 58
-59 -38
-59 -39
38 39 59
-60 -40
-60 -41
40 41 60
-61 -42
-61 -43
42 43 61
-62 -44
-62 -45
44 45 62
-63 -46
-63 -47
46 47 63
-64 -48
-64 -49
48 49 64
-65 -50
-65 -51
50 51 65
-66 53
-66 54
-53 -54 66
-67 55
-67 56
-55 -56 67
-68 57
-68 58
-57 -58 68
-69 59
-69 60
-59 -60 69
-70 61
-70 62
-61 -62 70
-71 63
-71 64
-63 -64 71
-72 -52
-72 65
52 -65 72
-73 66
-73 67
-66 -67 73
-74 68
-74 69
-68 -69 74
-75 70
-75 71
-70 -71 75
-76 73
-76 74
-73 -74 76
-77 72
-77 75
-72 -75 77
-78 76
-78 77
-76 -77 78
-79 -25
-79 26
25 -26 79
-80 25
-80 -26
-25 26 80
-81 -79
-81 -80
79 80 81
-82 25
-82 26
-25 -26 82
-83 -25
-83 -81
25 81 83
-84 25
-84 81
-25 -81 84
-85 -83
-85 -84
83 84 85
-86 25
-86 -81
-25 81 86
-87 -82
-87 -86
82 86 87
-88 -26
-88 27
26 -27 88
-89 26
-89 -27
-26 27 89
-90 -88
-90 -89
88 89 90
-91 26
-91 27
-26 -27 91
-92 87
-92 -90
-87 90 92
-93 -87
-93 90
87 -90 93
-94 -92
-94 -93
92 93 94
-95 -87
-95 -90
87 90 95
-96 -91
-96 -95
91 95 96
-97 -27
-97 28
27 -28 97
-98 27
-98 -28
-27 28 98
-99 -97
-99 -98
97 98 99
-100 27
-100 28
-27 -28 100
-101 96
-101 -99
-96 99 101
-102 -96
-102 99
96 -99 102
-103 -101
-103 -102
101 102 103
-104 -96
-104 -99
96 99 104
-105 -100
-105 -104
100 104 105
-106 -28
-106 29
28 -29 106
-107 28
-107 -29
-28 29 107
-108 -106
-108 -107
106 107 108
-109 28
-109 29
-28 -29 109
-110 105
-110 -108
-105 108 110
-111 -105
-111 108
105 -108 111
-112 -110
-112 -111
110 111 112
-113 -105
-113 -108
105 108 113
-114 -109
-114 -113
109 113 114
-115 -29
-115 30
29 -30 115
-116 29
-116 -30
-29 30 116
-117 -115
-117 -116
115 116 117
-118 29
-118 30
-29 -30 118
-119 114
-119 -117
-114 117 119
-120 -114
-120 117
114 -117 120
-121 -119
-121 -120
119 120 121
-122 -114
-122 -117
114 117 122
-123 -118
-123 -122
118 122 123
-124 -30
-124 31
30 -31 124
-125 30
-125 -31
-30 31 125
-126 -124
-126 -125
124 125 126
-127 30
-127 31
-30 -31 127
-128 123
-128 -126
-123 126 128
-129 -123
-129 126
123 -126 129
-130 -128
-130 -129
128 129 130
-131 -123
-131 -126
123 126 131
-132 -127
-132 -131
127 131 132
-133 -31
-133 32
31 -32 133
-134 31
-134 -32
-31 32 134
-135 -133
-135 -134
133 134 135
-136 31
-136 32
-31 -32 136
-137 132
-137 -135
-132 135 137
-138 -132
-138 135
132 -135 138
-139 -137
-139 -138
137 138 139
-140 -132
-140 -135
132 135 140
-141 -136
-141 -140
136 140 141
-142 -32
-142 33
32 -33 142
-143 32
-143 -33
-32 33 143
-144 -142
-144 -143
142 143 144
-145 32
-145 33
-32 -33 145
-146 141
-146 -144
-141 144 146
-147 -141
-147 144
141 -144 147
-148 -146
-148 -147
146 147 148
-149 -141
-149 -144
141 144 149
-150 -145
-150 -149
145 149 150
-151 -33
-151 34
33 -34 151
-152 33
-152 -34
-33 34 152
-153 -151
-153 -152
151 152 153
-154 33
-154 34
-33 -34 154
-155 150
-155 -153
-150 153 155
-156 -150
-156 153
150 -153 156
-157 -155
-157 -156
155 156 157
-158 -150
-158 -153
150 153 158
-159 -154
-159 -158
154 158 159
-160 -34
-160 35
34 -35 160
-161 34
-161 -35
-34 35 161
-162 -160
-162 -161
160 161 162
-163 34
-163 35
-34 -35 163
-164 159
-164 -162
-159 162 164
-165 -159
-165 162
159 -162 165
-166 -164
-166 -165
164 165 166
-167 -159
-167 -162
159 162 167
-168 -163
-168 -167
163 167 168
-169 -35
-169 36
35 -36 169
-170 35
-170 -36
-35 36 170
-171 -169
-171 -170
169 170 171
-172 35
-172 36
-35 -36 172
-173 168
-173 -171
-168 171 173
-174 -168
-174 171
168 -171 174
-175 -173
-175 -174
173 174 175
-176 -168
-176 -171
168 171 176
-177 -172
-177 -176
172 176 177
-178 -36
-178 37
36 -37 178
-179 36
-179 -37
-36 37 179
-180 -178
-180 -179
178 179 180
-181 36
-181 37
-36 -37 181
-182 177
-182 -180
-177 180 182
-183 -177
-183 180
177 -180 183
-184 -182
-184 -183
182 183 184
-185 -177
-185 -180
177 180 185
-186 -181
-186 -185
181 185 186
-187 -37
-187 38
37 -38 187
-188 37
-188 -38
-37 38 188
-189 -187
-189 -188
187 188 189
-190 37
-190 38
-37 -38 190
-191 186
-191 -189
-186 189 191
-192 -186
-192 189
186 -189 192
-193 -191
-193 -192
191 192 193
-194 -186
-194 -189
186 189 194
-195 -190
-195 -194
190 194 195
-196 -38
-196 39
38 -39 196
-197 38
-197 -39
-38 39 197
-198 -196
-198 -197
196 197 198
-199 38
-199 39
-38 -39 199
-200 195
-200 -198
-195 198 200
-201 -195
-201 198
195 -198 201
-202 -200
-202 -201
200 201 202
-203 -195
-203 -198
195 198 203
-204 -199
-204 -203
199 203 204
-205 -39
-205 40
39 -40 205
-206 39
-206 -40
-39 40 206
-207 -205
-207 -206
205 206 207
-208 39
-208 40
-39 -40 208
-209 204
-209 -207
-204 207 209
-210 -204
-210 207
204 -207 210
-211 -209
-211 -210
209 210 211
-212 -204
-212 -207
204 207 212
-213 -208
-213 -212
208 212 213
-214 -40
-214 41
40 -41 214
-215 40
-215 -41
-40 41 215
-216 -214
-216 -215
214 215 216
-217 40
-217 41
-40 -41 217
-218 213
-218 -216
-213 216 218
-219 -213
-219 216
213 -216 219
-220 -218
-220 -219
218 219 220
-221 -213
-221 -216
213 216 221
-222 -217
-222 -221
217 221 222
-223 -41
-223 42
41 -42 223
-224 41
-224 -42
-41 42 224
-225 -223
-225 -224
223 224 225
-226 41
-226 42
-41 -42 226
-227 222
-227 -225
-222 225 227
-228 -222
-228 225
222 -225 228
-229 -227
-229 -228
227 228 229
-230 -222
-230 -225
222 225 230
-231 -226
-231 -230
226 230 231
-232 -42
-232 43
42 -43 232
-233 42
-233 -43
-42 43 233
-234 -232
-234 -233
232 233 234
-235 42
-235 43
-42 -43 235
-236 231
-236 -234
-231 234 236
-237 -231
-237 234
231 -234 237
-238 -236
-238 -237
236 237 238
-239 -231
-239 -234
231 234 239
-240 -235
-240 -239
235 239 240
-241 -43
-241 44
43 -44 241
-242 43
-242 -44
-43 44 242
-243 -241
-243 -242
241 242 243
-244 43
-244 44
-43 -44 244
-245 240
-245 -243
-240 243 245
-246 -240
-246 243
240 -243 246
-247 -245
-247 -246
245 246 247
-248 -240
-248 -243
240 243 248
-249 -244
-249 -248
244 248 249
-250 -44
-250 45
44 -45 250
-251 44
-251 -45
-44 45 251
-252 -250
-252 -251
250 251 252
-253 44
-253 45
-44 -45 253
-254 249
-254 -252
-249 252 254
-255 -249
-255 252
249 -252 255
-256 -254
-256 -255
254 255 256
-257 -249
-257 -252
249 252 257
-258 -253
-258 -257
253 257 258
-259 -45
-259 46
45 -46 259
-260 45
-260 -46
-45 46 260
-261 -259
-261 -260
259 260 261
-262 45
-262 46
-45 -46 262
-263 258
-263 -261
-258 261 263
-264 -258
-264 261
258 -261 264
-265 -263
-265 -264
263 264 265
-266 -258
-266 -261
258 261 266
-267 -262
-267 -266
262 266 267
-268 -46
-268 47
46 -47 268
-269 46
-269 -47
-46 47 269
-270 -268
-270 -269
268 269 270
-271 46
-271 47
-46 -47 271
-272 267
-272 -270
-267 270 272
-273 -267
-273 270
267 -270 273
-274 -272
-274 -273
272 273 274
-275 -267
-275 -270
267 270 275
-276 -271
-276 -275
271 275 276
-277 -47
-277 48
47 -48 277
-278 47
-278 -48
-47 48 278
-279 -277
-279 -278
277 278 279
-280 47
-280 48
-47 -48 280
-281 276
-281 -279
-276 279 281
-282 -276
-282 279
276 -279 282
-283 -281
-283 -282
281 282 283
-284 -276
-284 -279
276 279 284
-285 -280
-285 -284
280 284 285
-286 -48
-286 49
48 -49 286
-287 48
-287 -49
-48 49 287
-288 -286
-288 -287
286 287 288
-289 48
-289 49
-48 -49 289
-290 285
-290 -288
-285 288 290
-291 -285
-291 288
285 -288 291
-292 -290
-292 -291
290 291 292
-293 -285
-293 -288
285 288 293
-294 -289
-294 -293
289 293 294
-295 -49
-295 50
49 -50 295
-296 49
-296 -50
-49 50 296
-297 -295
-297 -296
295 296 297
-298 49
-298 50
-49 -50 298
-299 294
-299 -297
-294 297 299
-300 -294
-300 297
294 -297 300
-301 -299
-301 -300
299 300 301
-302 -294
-302 -297
294 297 302
-303 -298
-303 -302
298 302 303
-304 -50
-304 51
50 -51 304
-305 50
-305 -51
-50 51 305
-306 -304
-306 -305
304 305 306
-307 50
-307 51
-50 -51 307
-308 303
-308 -306
-303 306 308
-309 -303
-309 306
303 -306 309
-310 -308
-310 -309
308 309 310
-311 -303
-311 -306
303 306 311
-312 -307
-312 -311
307 311 312
-313 -51
-313 52
51 -52 313
-314 51
-314 -52
-51 52 314
-315 -313
-315 -314
313 314 315
-316 51
-316 52
-51 -52 316
-317 312
-317 -315
-312 315 317
-318 -312
-318 315
312 -315 318
-319 -317
-319 -318
317 318 319
-320 -312
-320 -315
312 315 320
-321 -316
-321 -320
316 320 321
-322 25
-322 -85
-25 85 322
-323 -25
-323 27
25 -27 323
-324 -322
-324 -323
322 323 324
-325 25
-325 -94
-25 94 325
-326 -25
-326 28
25 -28 326
-327 -325
-327 -326
325 326 327
-328 25
-328 -103
-25 103 328
-329 -25
-329 29
25 -29 329
-330 -328
-330 -329
328 329 330
-331 25
-331 -112
-25 112 331
-332 -25
-332 30
25 -30 332
-333 -331
-333 -332
331 332 333
-334 25
-334 -121
-25 121 334
-335 -25
-335 31
25 -31 335
-336 -334
-336 -335
334 335 336
-337 25
-337 -130
-25 130 337
-338 -25
-338 32
25 -32 338
-339 -337
-339 -338
337 338 339
-340 25
-340 -139
-25 139 340
-341 -25
-341 33
25 -33 341
-342 -340
-342 -341
340 341 342
-343 25
-343 -148
-25 148 343
-344 -25
-344 34
25 -34 344
-345 -343
-345 -344
343 344 345
-346 25
-346 -157
-25 157 346
-347 -25
-347 35
25 -35 347
-348 -346
-348 -347
346 347 348
-349 25
-349 -166
-25 166 349
-350 -25
-350 36
25 -36 350
-351 -349
-351 -350
349 350 351
-352 25
-352 -175
-25 175 352
-353 -25
-353 37
25 -37 353
-354 -352
-354 -353
352 353 354
-355 25
-355 -184
-25 184 355
-356 -25
-356 38
25 -38 356
-357 -355
-357 -356
355 356 357
-358 25
-358 -193
-25 193 358
-359 -25
-359 39
25 -39 359
-360 -358
-360 -359
358 359 360
-361 25
-361 -202
-25 202 361
-362 -25
-362 40
25 -40 362
-363 -361
-363 -362
361 362 363
-364 25
-364 -211
-25 211 364
-365 -25
-365 41
25 -41 365
-366 -364
-366 -365
364 365 366
-367 25
-367 -220
-25 220 367
-368 -25
-368 42
25 -42 368
-369 -367
-369 -368
367 368 369
-370 25
-370 -229
-25 229 370
-371 -25
-371 43
25 -43 371
-372 -370
-372 -371
370 371 372
-373 25
-373 -238
-25 238 373
-374 -25
-374 44
25 -44 374
-375 -373
-375 -374
373 374 375
-376 25
-376 -247
-25 247 376
-377 -25
-377 45
25 -45 377
-378 -376
-378 -377
376 377 378
-379 25
-379 -256
-25 256 379
-380 -25
-380 46
25 -46 380
-381 -379
-381 -380
379 380 381
-382 25
-382 -265
-25 265 382
-383 -25
-383 47
25 -47 383
-384 -382
-384 -383
382 383 384
-385 25
-385 -274
-25 274 385
-386 -25
-386 48
25 -48 386
-387 -385
-387 -386
385 386 387
-388 25
-388 -283
-25 283 388
-389 -25
-389 49
25 -49 389
-390 -388
-390 -389
388 389 390
-391 25
-391 -292
-25 292 391
-392 -25
-392 50
25 -50 392
-393 -391
-393 -392
391 392 393
-394 25
-394 -301
-25 301 394
-395 -25
-395 51
25 -51 395
-396 -394
-396 -395
394 395 396
-397 25
-397 -310
-25 310 397
-398 -25
-398 52
25 -52 398
-399 -397
-399 -398
397 398 399
-400 25
-400 -319
-25 319 400
-401 1
-401 78
-1 -78 401
-402 -78
-402 79
78 -79 402
-403 -401
-403 -402
401 402 403
-404 2
-404 78
-2 -78 404
-405 -78
-405 -324
78 324 405
-406 -404
-406 -405
404 405 406
-407 3
-407 78
-3 -78 407
-408 -78
-408 -327
78 327 408
-409 -407
-409 -408
407 408 409
-410 4
-410 78
-4 -78 410
-411 -78
-411 -330
78 330 411
-412 -410
-412 -411
410 411 412
-413 5
-413 78
-5 -78 413
-414 -78
-414 -333
78 333 414
-415 -413
-415 -414
413 414 415
-416 6
-416 78
-6 -78 416
-417 -78
-417 -336
78 336 417
-418 -416
-418 -417
416 417 418
-419 7
-419 78
-7 -78 419
-420 -78
-420 -339
78 339 420
-421 -419
-421 -420
419 420 421
-422 8
-422 78
-8 -78 422
-423 -78
-423 -342
78 342 423
-424 -422
-424 -423
422 423 424
-425 9
-425 78
-9 -78 425
-426 -78
-426 -345
78 345 426
-427 -425
-427 -426
425 426 427
-428 10
-428 78
-10 -78 428
-429 -78
-429 -348
78 348 429
-430 -428
-430 -429
428 429 430
-431 11
-431 78
-11 -78 431
-432 -78
-432 -351
78 351 432
-433 -431
-433 -432
431 432 433
-434 12
-434 78
-12 -78 434
-435 -78
-435 -354
78 354 435
-436 -434
-436 -435
434 435 436
-437 13
-437 78
-13 -78 437
-438 -78
-438 -357
78 357 438
-439 -437
-439 -438
437 438 439
-440 14
-440 78
-14 -78 440
-441 -78
-441 -360
78 360 441
-442 -440
-442 -441
440 441 442
-443 15
-443 78
-15 -78 443
-444 -78
-444 -363
78 363 444
-445 -443
-445 -444
443 444 445
-446 16
-446 78
-16 -78 446
-447 -78
-447 -366
78 366 447
-448 -446
-448 -447
446 447 448
-449 17
-449 78
-17 -78 449
-450 -78
-450 -369
78 369 450
-451 -449
-451 -450
449 450 451
-452 18
-452 78
-18 -78 452
-453 -78
-453 -372
78 372 453
-454 -452
-454 -453
452 453 454
-455 19
-455 78
-19 -78 455
-456 -78
-456 -375
78 375 456
-457 -455
-457 -456
455 456 457
-458 20
-458 78
-20 -78 458
-459 -78
-459 -378
78 378 459
-460 -458
-460 -459
458 459 460
-461 21
-461 78
-21 -78 461
-462 -78
-462 -381
78 381 462
-463 -461
-463 -462
461 462 463
-464 22
-464 78
-22 -78 464
-465 -78
-465 -384
78 384 465
-466 -464
-466 -465
464 465 466
-467 23
-467 78
-23 -78 467
-468 -78
-468 -387
78 387 468
-469 -467
-469 -468
467 468 469
-470 24
-470 78
-24 -78 470
-471 -78
-471 -390
78 390 471
-472 -470
-472 -471
470 471 472
-473 -78
-473 -393
78 393 473
-474 -78
-474 -396
78 396 474
-475 -78
-475 -399
78 399 475
-476 -78
-476 400
78 -400 476
-477 -52
-477 321
52 -321 477
-478 25
-478 -477
-25 477 478
478
